6 100 404
0 14 68
1 73 2 8 67
2 13 47 24 50
3 37 44 9 41
4 34 63 19 56
5 58 98 9 64
6 33 42 18 27
7 18 98 9 35
8 24 79 14 50
9 17 28 3 75
10 72 67 14 30
11 78 63 8 60
12 42 48 8 28
13 1 2 13 65
14 2 28 18 23
15 32 82 4 24
16 97 38 24 41
17 39 53 14 69
18 87 1 8 7
19 42 77 18 77
20 83 27 13 73
21 79 92 2 72
22 22 39 9 17
23 58 32 18 69
24 53 84 3 30
25 38 37 24 56
26 63 59 8 26
27 42 88 24 19
28 32 88 14 27
29 38 23 13 55
30 63 32 24 11
31 22 73 23 74
32 88 94 9 62
33 58 78 13 62
34 43 62 14 72
35 73 1 14 26
36 17 32 18 64
37 87 79 24 1
38 12 24 4 38
39 48 53 8 60
40 48 23 13 10
41 7 37 4 68
42 98 77 14 57
43 34 12 18 48
